NPROCS=0
This instance is clustered!
Gurobi Optimizer version 9.0.0 build v9.0.0rc2 (linux64)
Optimize a model with 26 rows, 170 columns and 338 nonzeros
Model fingerprint: 0x04d99c37
Variable types: 1 continuous, 169 integer (169 binary)
Coefficient statistics:
  Matrix range     [1e+00, 1e+00]
  Objective range  [1e+00, 1e+02]
  Bounds range     [1e+00, 1e+00]
  RHS range        [1e+00, 1e+00]
Presolve removed 2 rows and 36 columns
Presolve time: 0.00s
Presolved: 24 rows, 134 columns, 266 nonzeros
Variable types: 1 continuous, 133 integer (133 binary)

Root relaxation: objective 2.855249e+02, 25 iterations, 0.00 seconds

    Nodes    |    Current Node    |     Objective Bounds      |     Work
 Expl Unexpl |  Obj  Depth IntInf | Incumbent    BestBd   Gap | It/Node Time

     0     0  285.52485    0   12          -  285.52485      -     -    0s
H    0     0                     366.6144136  285.52485  22.1%     -    0s
     0     0  304.55508    0   20  366.61441  304.55508  16.9%     -    0s
     0     0  313.28956    0   23  366.61441  313.28956  14.5%     -    0s
     0     0  314.34145    0   24  366.61441  314.34145  14.3%     -    0s
     0     0  315.02116    0   27  366.61441  315.02116  14.1%     -    0s
     0     0  321.66307    0   22  366.61441  321.66307  12.3%     -    0s
     0     0  321.84429    0   27  366.61441  321.84429  12.2%     -    0s
     0     0  322.46018    0   25  366.61441  322.46018  12.0%     -    0s
     0     0  325.95914    0   30  366.61441  325.95914  11.1%     -    0s
     0     0  326.18716    0   30  366.61441  326.18716  11.0%     -    0s
     0     0  326.28851    0   30  366.61441  326.28851  11.0%     -    0s
     0     0  326.34148    0   31  366.61441  326.34148  11.0%     -    0s
     0     0  328.43102    0   29  366.61441  328.43102  10.4%     -    0s
     0     0  328.43102    0   29  366.61441  328.43102  10.4%     -    0s
     0     0  328.43102    0   26  366.61441  328.43102  10.4%     -    0s
     0     0  328.43102    0   29  366.61441  328.43102  10.4%     -    0s
     0     0  328.96093    0   30  366.61441  328.96093  10.3%     -    0s
     0     0  329.13904    0   29  366.61441  329.13904  10.2%     -    0s
     0     0  332.16635    0   31  366.61441  332.16635  9.40%     -    0s
     0     0  333.18607    0   31  366.61441  333.18607  9.12%     -    0s
     0     0  333.69433    0   33  366.61441  333.69433  8.98%     -    0s
     0     0  333.71036    0   34  366.61441  333.71036  8.98%     -    0s
     0     0  333.71036    0   34  366.61441  333.71036  8.98%     -    0s
     0     2  339.27842    0   34  366.61441  339.27842  7.46%     -    0s

Cutting planes:
  Gomory: 4
  MIR: 3
  RLT: 4
  Lazy constraints: 17

Explored 83 nodes (653 simplex iterations) in 0.11 seconds
Thread count was 12 (of 12 available processors)

Solution count 1: 366.614 

Optimal solution found (tolerance 1.00e-04)
Best objective 3.666144135568e+02, best bound 3.666144135568e+02, gap 0.0000%

User-callback calls 405, time in user-callback 0.00 sec
/projects/academic/josewalt/caigao/RRARP_BD/BendersDecomp/ret/model_outs/n_11_e_6_algo_3.out
 =====>>>>> Solution is written to file in <../ret/model_outs> !!!
===>> All Done!
